sat
(
  (define-fun N () String
    "\u{0}")
  (define-fun K () String
    "a\u{0}bcaaaaaabaacbcaab\u{0}aba")
  (define-fun M () String
    "a")
  (define-fun D () String
    "aaa")
  (define-fun J () String
    "aca")
)
